








































































































70 42 69 35 60 27 56 4 
47 67 64 52 11 3 57 28 
14 53 19 2 37 15 0 75 
13 25 61 1 18 36 63 68 
24 73 49 45 16 30 39 50 
5 31 58 9 48 34 59 71 
8 62 20 46 43 10 22 
23 44 40 66 55 65 33 41 
32 29 6 17 21 72 26 
51 7 54 74 38 12 76 
